SCIP version 5.0.0 [precision: 8 byte] [memory: block] [mode: optimized] [LP solver: NONE] [GitHash: 3bbd232]
Copyright (C) 2002-2017 Konrad-Zuse-Zentrum fuer Informationstechnik Berlin (ZIB)

External codes: 
  Readline EditLine w  GNU library for command line editing (gnu.org/s/readline)
  CppAD 20160000.1     Algorithmic Differentiation of C++ algorithms developed by B. Bell (www.coin-or.org/CppAD)
  ZLIB 1.2.5           General purpose compression library by J. Gailly and M. Adler (zlib.net)
  GMP 6.1.2            GNU Multiple Precision Arithmetic Library developed by T. Granlund (gmplib.org)

user parameter file <scip.set> not found - using default parameters

read problem <../../Split_data/output/breast/7/3_sample_breast.logreg>
============

File name	:	../../Split_data/output/breast/7/3_sample_breast.logreg
Problem name 	:	3_sample_breast
Number of data	:	155
Number of var	:	33
The given data has linear dependence
16 sets of column vector are linearly dependent:
elements are all 0
elements are all 0
elements are all 0
elements are all 0
elements are all 0
elements are all 0

[dim=1] time: 0.00454
[dim=2] time: 0.00803
[dim=3] time: 0.010662
[dim=4] time: 0.012812
[dim=5] Time of forward = 0.014883sec.
AIC: 151.618
k: 4

[dim=17] time: 0.005308
[dim=16] time: 0.00768
[dim=15] time: 0.010745
[dim=14] time: 0.012769
[dim=13] time: 0.014918
[dim=12] time: 0.016823
[dim=11] time: 0.018848
[dim=10] time: 0.020868
[dim=9] time: 0.022402
[dim=8] time: 0.023913
[dim=7] time: 0.025373
[dim=6] time: 0.026421
[dim=5] Time of backward = 0.027302sec.
AIC: 143.372
k: 6
